treewidth/data/TaylorTwographSRG_3.gr
p tw 28 210
1 13
1 23
1 26
1 27
1 28
1 3
1 6
1 8
1 10
1 11
1 12
1 14
1 16
1 19
1 20
2 22
2 24
2 25
2 3
2 6
2 7
2 8
2 10
2 11
2 12
2 14
2 16
2 19
2 20
2 21
13 24
13 25
13 3
13 5
13 7
13 10
13 14
13 15
13 16
13 17
13 18
13 19
13 20
13 21
22 23
22 26
22 27
22 28
22 3
22 5
22 10
22 14
22 15
22 16
22 17
22 18
22 19
22 20
23 25
23 3
23 4
23 5
23 6
23 7
23 11
23 12
23 15
23 16
23 17
23 19
23 21
24 26
24 27
24 28
24 3
24 4
24 5
24 6
24 11
24 12
24 15
24 16
24 17
24 19
25 26
25 28
25 3
25 4
25 5
25 6
25 8
25 9
25 10
25 14
25 15
25 16
26 28
26 4
26 6
26 7
26 10
26 12
26 15
26 16
26 18
26 20
26 21
27 3
27 4
27 5
27 6
27 7
27 8
27 9
27 10
27 14
27 15
27 16
27 21
28 3
28 5
28 7
28 8
28 9
28 11
28 14
28 17
28 19
28 21
3 4
3 7
3 9
3 12
3 18
3 20
4 8
4 10
4 11
4 14
4 17
4 18
4 19
4 20
4 21
5 6
5 8
5 10
5 11
5 12
5 18
5 20
5 21
6 7
6 9
6 14
6 17
6 18
6 19
6 20
7 8
7 10
7 11
7 15
7 17
7 18
7 21
8 12
8 15
8 16
8 17
8 18
8 19
8 20
9 10
9 11
9 12
9 15
9 16
9 17
9 18
9 19
9 20
9 21
10 11
10 12
10 17
10 19
11 14
11 15
11 16
11 18
11 20
12 14
12 15
12 17
12 18
12 21
14 15
14 17
14 18
14 21
15 19
15 20
16 17
16 18
16 21
17 20
18 19
19 21
20 21
