treewidth/data/TaylorTwographSRG_3.td
c width = 22, time = 0.420028
s td 5 23 28
b 1 5 6 7 8 9 10 11 12 13 14 15 18 19 20 21 22 23 24 25 26 27 28
b 2 3 6 7 8 9 10 11 12 13 14 16 17 18 19 20 21 22 23 24 25 26 27 28
b 3 1 3 6 8 10 11 12 13 14 16 19 20 23 26 27 28
b 4 2 3 6 7 8 10 11 12 14 16 19 20 21 22 24 25
b 5 3 4 8 10 11 14 17 18 19 20 21 23 24 25 26 27
2 3
2 4
2 5
1 2
